objective value:                                 -171
t_x8                                                1 	(obj:-100)
t_x129                                              1 	(obj:-100)
t_y8_87                                             1 	(obj:1)
t_y44_129                                           1 	(obj:1)
t_y129_158                                          1 	(obj:1)
t_y8_163                                            1 	(obj:1)
t_y8_97                                             1 	(obj:1)
t_y5_129                                            1 	(obj:1)
t_y8_104                                            1 	(obj:1)
t_y129_157                                          1 	(obj:1)
t_y82_129                                           1 	(obj:1)
t_y8_176                                            1 	(obj:1)
t_y129_156                                          1 	(obj:1)
t_y23_129                                           1 	(obj:1)
t_y55_129                                           1 	(obj:1)
t_y8_25                                             1 	(obj:1)
t_y129_153                                          1 	(obj:1)
t_y8_112                                            1 	(obj:1)
t_y129_169                                          1 	(obj:1)
t_y59_129                                           1 	(obj:1)
t_y99_129                                           1 	(obj:1)
t_y25_129                                           1 	(obj:1)
t_y129_161                                          1 	(obj:1)
t_y8_37                                             1 	(obj:1)
t_y74_129                                           1 	(obj:1)
t_y106_129                                          1 	(obj:1)
t_y8_121                                            1 	(obj:1)
t_y8_200                                            1 	(obj:1)
t_y129_199                                          1 	(obj:1)
t_y33_129                                           1 	(obj:1)
t_y65_129                                           1 	(obj:1)
